
Route #1: 28 19 27 40 34 31 29 41 20 33 36 38 45 
Route #2: 9 37 18 35 24 25 3 
Route #3: 7 42 11 39 22 32 
Route #4: 30 43 14 44 10 8 5 
Route #5: 23 2 4 13 26 
Route #6: 12 15 1 16 17 21 
Route #7: 6 
cost 1434.97
total time is 4.6